(declare-sort sk 0)
(declare-sort fun1 0)
(declare-sort fun12 0)
(declare-sort fun13 0)
(declare-sort fun14 0)
(declare-sort fun15 0)
(declare-sort sk2 0)
(declare-datatype list3 ((nil3) (cons3 (head3 sk) (tail3 list3))))
(declare-datatype Nat ((zero) (succ (p Nat))))
(declare-datatype list2 ((nil2) (cons2 (head2 Nat) (tail2 list2))))
(declare-datatype list ((nil) (cons (head list2) (tail list))))
(declare-fun plus (Nat Nat) Nat)
(declare-fun leq (Nat Nat) Bool)
(declare-fun lmerge (list2 list2) list2)
(declare-fun pairwise (list) list)
(declare-fun mergingbu (list) list2)
(declare-fun msortbu (list2) list2)
(declare-fun map2 (fun1 list2) list)
(declare-fun map3 (fun12 list3) list3)
(declare-fun count (sk list3) Nat)
(declare-const lam fun1)
(declare-fun apply1 (fun1 Nat) list2)
(declare-fun apply12 (fun12 sk) sk)
(declare-fun apply13 (fun13 sk) sk2)
(declare-fun apply14 (fun14 sk2) sk)
(declare-fun apply15 (fun15 sk2) sk2)
(assert
  (forall ((x Nat) (y Nat) (z Nat))
    (= (plus x (plus y z)) (plus (plus x y) z))))
(assert (forall ((x Nat) (y Nat)) (= (plus x y) (plus y x))))
(assert (forall ((x Nat)) (= (plus x zero) x)))
(assert (forall ((x Nat)) (= (plus zero x) x)))
(assert (= (pairwise nil) nil))
(assert (= (mergingbu nil) nil2))
(assert (forall ((y Nat)) (= (plus zero y) y)))
(assert
  (forall ((y Nat) (z Nat)) (= (plus (succ z) y) (succ (plus z y)))))
(assert (forall ((f fun1)) (= (map2 f nil2) nil)))
(assert
  (forall ((f fun1) (y Nat) (xs list2))
    (= (map2 f (cons2 y xs)) (cons (apply1 f y) (map2 f xs)))))
(assert (forall ((f fun12)) (= (map3 f nil3) nil3)))
(assert
  (forall ((f fun12) (y sk) (xs list3))
    (= (map3 f (cons3 y xs)) (cons3 (apply12 f y) (map3 f xs)))))
(assert (forall ((y Nat)) (leq zero y)))
(assert (forall ((z Nat)) (not (leq (succ z) zero))))
(assert
  (forall ((z Nat) (x2 Nat))
    (= (leq (succ z) (succ x2)) (leq z x2))))
(assert (forall ((y list2)) (= (lmerge nil2 y) y)))
(assert
  (forall ((z Nat) (x2 list2))
    (= (lmerge (cons2 z x2) nil2) (cons2 z x2))))
(assert
  (forall ((z Nat) (x2 list2) (x3 Nat) (x4 list2))
    (=> (leq z x3)
      (= (lmerge (cons2 z x2) (cons2 x3 x4))
        (cons2 z (lmerge x2 (cons2 x3 x4)))))))
(assert
  (forall ((z Nat) (x2 list2) (x3 Nat) (x4 list2))
    (=> (not (leq z x3))
      (= (lmerge (cons2 z x2) (cons2 x3 x4))
        (cons2 x3 (lmerge (cons2 z x2) x4))))))
(assert
  (forall ((xs list2)) (= (pairwise (cons xs nil)) (cons xs nil))))
(assert
  (forall ((xs list2) (ys list2) (xss list))
    (= (pairwise (cons xs (cons ys xss)))
      (cons (lmerge xs ys) (pairwise xss)))))
(assert (forall ((xs list2)) (= (mergingbu (cons xs nil)) xs)))
(assert
  (forall ((xs list2) (z list2) (x2 list))
    (= (mergingbu (cons xs (cons z x2)))
      (mergingbu (pairwise (cons xs (cons z x2)))))))
(assert
  (forall ((x list2)) (= (msortbu x) (mergingbu (map2 lam x)))))
(assert (forall ((x sk)) (= (count x nil3) zero)))
(assert
  (forall ((x sk) (z sk) (ys list3))
    (=> (= x z)
      (= (count x (cons3 z ys)) (plus (succ zero) (count x ys))))))
(assert
  (forall ((x sk) (z sk) (ys list3))
    (=> (distinct x z) (= (count x (cons3 z ys)) (count x ys)))))
(assert (forall ((y Nat)) (= (apply1 lam y) (cons2 y nil2))))
